benchmarks/VRPTW/TSPTW/solution/n40w60.001.txt.solution
1 16 7 37 17 9 18 5 8 34 11 20 33 2 28 10 23 22 13 19 26 32 14 4 24 27 6 36 31 35 15 29 30 39 40 3 21 38 41 12 25 
494
